NAME: ACTUAL_TOURS/amz0416
TYPE: TOUR
COMMENT: RouteID_2bfded88-7f18-4e7b-b1cf-2b2f5579f902
DIMENSION: 165
TOUR_SECTION
97
36
145
39
28
135
65
69
119
143
38
142
123
70
23
22
138
55
29
27
6
127
132
155
18
115
92
19
49
17
33
98
25
48
41
165
26
43
110
147
141
50
63
15
113
134
130
96
137
53
44
30
157
164
11
162
67
109
107
31
76
149
106
128
140
9
94
125
56
144
120
87
54
52
158
4
80
93
68
7
16
163
84
148
1
105
75
86
160
2
101
78
24
133
114
13
64
57
112
116
102
151
108
118
139
73
161
156
40
150
51
159
89
90
146
61
3
122
77
95
103
71
152
58
20
5
21
129
45
88
117
111
34
99
37
100
91
12
32
154
79
82
153
59
131
62
46
47
10
126
8
42
124
66
81
85
35
104
60
121
83
14
72
74
136
-1
EOF
